
  12    4
  10   10   10   10

   0   0   0   0   0   2 2 3 
   4  10  10  10  10   4 11 7 6 4 
  10  10  10  10  10   4 11 10 8 6 
   7  10  10  10  10   1 5 
   7  10  10  10  10   3 10 9 8 
   1  10  10  10  10   1 9 
   5  10  10  10  10   1 8 
   3  10  10  10  10   1 12
  10  10  10  10  10   1 12
   5  10  10  10  10   1 12
  10  10  10  10  10   1 12
   0   0   0   0   0   0 
